\ LP format - for model browsing. Use MPS format to capture full model detail.
Maximize
obj:   x[1] + x[10] + x[19] + x[22] + x[25] + x[2] + x[11] + x[28] + x[31]
   + x[34] + x[3] + x[12] + x[37] + x[40] + x[43] + x[4] + x[13] + x[23]
   + x[29] + x[44] + x[5] + x[14] + x[20] + x[32] + x[41] + x[6] + x[15]
   + x[26] + x[35] + x[38] + x[7] + x[16] + x[27] + x[33] + x[45] + x[8]
   + x[17] + x[24] + x[36] + x[42] + x[9] + x[18] + x[21] + x[30] + x[39]
Subject To
 edge: x[1] + x[10] <= 1
 edge: x[1] + x[19] <= 1
 edge: x[1] + x[22] <= 1
 edge: x[1] + x[25] <= 1
 edge: x[10] + x[11] <= 1
 edge: x[10] + x[12] <= 1
 edge: x[19] + x[20] <= 1
 edge: x[19] + x[21] <= 1
 edge: x[22] + x[23] <= 1
 edge: x[22] + x[24] <= 1
 edge: x[25] + x[26] <= 1
 edge: x[25] + x[27] <= 1
 edge: x[2] + x[11] <= 1
 edge: x[2] + x[28] <= 1
 edge: x[2] + x[31] <= 1
 edge: x[2] + x[34] <= 1
 edge: x[11] + x[12] <= 1
 edge: x[28] + x[29] <= 1
 edge: x[28] + x[30] <= 1
 edge: x[31] + x[32] <= 1
 edge: x[31] + x[33] <= 1
 edge: x[34] + x[35] <= 1
 edge: x[34] + x[36] <= 1
 edge: x[3] + x[12] <= 1
 edge: x[3] + x[37] <= 1
 edge: x[3] + x[40] <= 1
 edge: x[3] + x[43] <= 1
 edge: x[37] + x[38] <= 1
 edge: x[37] + x[39] <= 1
 edge: x[40] + x[41] <= 1
 edge: x[40] + x[42] <= 1
 edge: x[43] + x[44] <= 1
 edge: x[43] + x[45] <= 1
 edge: x[4] + x[13] <= 1
 edge: x[4] + x[23] <= 1
 edge: x[4] + x[29] <= 1
 edge: x[4] + x[44] <= 1
 edge: x[13] + x[14] <= 1
 edge: x[13] + x[15] <= 1
 edge: x[23] + x[24] <= 1
 edge: x[29] + x[30] <= 1
 edge: x[44] + x[45] <= 1
 edge: x[5] + x[14] <= 1
 edge: x[5] + x[20] <= 1
 edge: x[5] + x[32] <= 1
 edge: x[5] + x[41] <= 1
 edge: x[14] + x[15] <= 1
 edge: x[20] + x[21] <= 1
 edge: x[32] + x[33] <= 1
 edge: x[41] + x[42] <= 1
 edge: x[6] + x[15] <= 1
 edge: x[6] + x[26] <= 1
 edge: x[6] + x[35] <= 1
 edge: x[6] + x[38] <= 1
 edge: x[26] + x[27] <= 1
 edge: x[35] + x[36] <= 1
 edge: x[38] + x[39] <= 1
 edge: x[7] + x[16] <= 1
 edge: x[7] + x[27] <= 1
 edge: x[7] + x[33] <= 1
 edge: x[7] + x[45] <= 1
 edge: x[16] + x[17] <= 1
 edge: x[16] + x[18] <= 1
 edge: x[8] + x[17] <= 1
 edge: x[8] + x[24] <= 1
 edge: x[8] + x[36] <= 1
 edge: x[8] + x[42] <= 1
 edge: x[17] + x[18] <= 1
 edge: x[9] + x[18] <= 1
 edge: x[9] + x[21] <= 1
 edge: x[9] + x[30] <= 1
 edge: x[9] + x[39] <= 1
Bounds
Binaries
 x[1] x[10] x[19] x[22] x[25] x[2] x[11] x[28] x[31] x[34] x[3] x[12] x[37]
 x[40] x[43] x[4] x[13] x[23] x[29] x[44] x[5] x[14] x[20] x[32] x[41] x[6]
 x[15] x[26] x[35] x[38] x[7] x[16] x[27] x[33] x[45] x[8] x[17] x[24]
 x[36] x[42] x[9] x[18] x[21] x[30] x[39]
End
